50
raw_data/mm-rcpsp/MMLIB50/J5010_5.mm
Time limit set to 60 seconds
Running CP solver
/home/omastto1/General-Optimization-Solver/src/solvers/mmrcpsp.py:42(stream:276:6): Warning: Cumulative expression 'pulse': height is zero, expression is zero everywhere.
                                                                                               VarCumulAtom_419 = pulse(task_0_mode_0, 0)
/home/omastto1/General-Optimization-Solver/src/solvers/mmrcpsp.py:42(stream:276:3908): Warning: Cumulative expression 'pulse': height is zero, expression is zero everywhere.
                                                                                                  VarCumulAtom_570 = pulse(task_51_mode_0, 0)
/home/omastto1/General-Optimization-Solver/src/solvers/mmrcpsp.py:42(stream:277:6): Warning: Cumulative expression 'pulse': height is zero, expression is zero everywhere.
                                                                                               VarCumulAtom_574 = pulse(task_0_mode_0, 0)
/home/omastto1/General-Optimization-Solver/src/solvers/mmrcpsp.py:42(stream:277:3904): Warning: Cumulative expression 'pulse': height is zero, expression is zero everywhere.
                                                                                                  VarCumulAtom_725 = pulse(task_51_mode_0, 0)
 ! --------------------------------------------------- CP Optimizer 20.1.0.0 --
 ! Minimization problem - 205 variables, 278 constraints
 ! TimeLimit            = 60
 ! Workers              = 14
 ! LogVerbosity         = Terse
 ! Initial process time : 0.00s (0.00s extraction + 0.00s propagation)
 !  . Log search space  : 526.2 (before), 526.2 (after)
 !  . Memory usage      : 1.3 MB (before), 1.3 MB (after)
 ! Using parallel search with 14 workers.
 ! ----------------------------------------------------------------------------
 !          Best Branches  Non-fixed    W       Branch decision
                        0        205                 -
 + New bound is 20
 ! Using iterative diving.
 ! Using temporal relaxation.
 *            68      115  0.84s        1      (gap is 70.59%)
 *            59      323  0.84s        1      (gap is 66.10%)
 *            57      511  0.84s        1      (gap is 64.91%)
 *            53      915  0.84s        1      (gap is 62.26%)
 *            50     1096  0.84s        1      (gap is 60.00%)
 *            47     1309  0.84s        1      (gap is 57.45%)
 *            46     1302  0.84s        6      (gap is 56.52%)
 *            45     3109  1.57s        5      (gap is 55.56%)
 *            44     4080  1.57s        5      (gap is 54.55%)
 *            42     4493  1.57s        7      (gap is 52.38%)
 *            39     2291  1.57s       11      (gap is 48.72%)
 *            38     6855  2.28s        4      (gap is 47.37%)
 ! Using failure-directed search.
 *            37    28222  8.66s       11      (gap is 45.95%)
              37    18001        186    1        21 >= startOf(task_51)
 + New bound is 21 (gap is 43.24%)
 *            36     174k  52.11s       8      (gap is 41.67%)
 ! ----------------------------------------------------------------------------
 ! Search terminated by limit, 14 solutions found.
 ! Best objective         : 36 (gap is 41.67%)
 ! Best bound             : 21
 ! ----------------------------------------------------------------------------
 ! Number of branches     : 5243568
 ! Number of fails        : 952869
 ! Total memory usage     : 20.0 MB (19.8 MB CP Optimizer + 0.2 MB Concert)
 ! Time spent in solve    : 60.03s (60.03s engine + 0.00s extraction)
 ! Search speed (br. / s) : 87363.7
 ! ----------------------------------------------------------------------------
task_0: (start=0, end=0, size=0, length=0)
Task 0 is scheduled in mode 0 from 0 to 0
task_1: (start=1, end=6, size=5, length=5)
Task 1 is scheduled in mode 0 from 1 to 6
task_2: (start=0, end=1, size=1, length=1)
Task 2 is scheduled in mode 0 from 0 to 1
task_3: (start=1, end=4, size=3, length=3)
Task 3 is scheduled in mode 0 from 1 to 4
task_4: (start=11, end=19, size=8, length=8)
Task 4 is scheduled in mode 1 from 11 to 19
task_5: (start=0, end=2, size=2, length=2)
Task 5 is scheduled in mode 0 from 0 to 2
task_6: (start=1, end=2, size=1, length=1)
Task 6 is scheduled in mode 0 from 1 to 2
task_7: (start=1, end=9, size=8, length=8)
Task 7 is scheduled in mode 2 from 1 to 9
task_8: (start=2, end=11, size=9, length=9)
Task 8 is scheduled in mode 1 from 2 to 11
task_9: (start=17, end=18, size=1, length=1)
Task 9 is scheduled in mode 0 from 17 to 18
task_10: (start=1, end=10, size=9, length=9)
Task 10 is scheduled in mode 2 from 1 to 10
task_11: (start=0, end=10, size=10, length=10)
Task 11 is scheduled in mode 2 from 0 to 10
task_12: (start=20, end=21, size=1, length=1)
Task 12 is scheduled in mode 0 from 20 to 21
task_13: (start=11, end=21, size=10, length=10)
Task 13 is scheduled in mode 2 from 11 to 21
task_14: (start=4, end=13, size=9, length=9)
Task 14 is scheduled in mode 2 from 4 to 13
task_15: (start=13, end=17, size=4, length=4)
Task 15 is scheduled in mode 0 from 13 to 17
task_16: (start=2, end=9, size=7, length=7)
Task 16 is scheduled in mode 2 from 2 to 9
task_17: (start=6, end=13, size=7, length=7)
Task 17 is scheduled in mode 1 from 6 to 13
task_18: (start=6, end=12, size=6, length=6)
Task 18 is scheduled in mode 1 from 6 to 12
task_19: (start=17, end=20, size=3, length=3)
Task 19 is scheduled in mode 0 from 17 to 20
task_20: (start=19, end=22, size=3, length=3)
Task 20 is scheduled in mode 1 from 19 to 22
task_21: (start=0, end=1, size=1, length=1)
Task 21 is scheduled in mode 0 from 0 to 1
task_22: (start=9, end=12, size=3, length=3)
Task 22 is scheduled in mode 1 from 9 to 12
task_23: (start=21, end=23, size=2, length=2)
Task 23 is scheduled in mode 1 from 21 to 23
task_24: (start=12, end=19, size=7, length=7)
Task 24 is scheduled in mode 2 from 12 to 19
task_25: (start=12, end=17, size=5, length=5)
Task 25 is scheduled in mode 2 from 12 to 17
task_26: (start=21, end=26, size=5, length=5)
Task 26 is scheduled in mode 2 from 21 to 26
task_27: (start=32, end=34, size=2, length=2)
Task 27 is scheduled in mode 0 from 32 to 34
task_28: (start=18, end=20, size=2, length=2)
Task 28 is scheduled in mode 0 from 18 to 20
task_29: (start=22, end=24, size=2, length=2)
Task 29 is scheduled in mode 0 from 22 to 24
task_30: (start=0, end=1, size=1, length=1)
Task 30 is scheduled in mode 0 from 0 to 1
task_31: (start=22, end=24, size=2, length=2)
Task 31 is scheduled in mode 0 from 22 to 24
task_32: (start=23, end=24, size=1, length=1)
Task 32 is scheduled in mode 0 from 23 to 24
task_33: (start=20, end=22, size=2, length=2)
Task 33 is scheduled in mode 0 from 20 to 22
task_34: (start=35, end=36, size=1, length=1)
Task 34 is scheduled in mode 0 from 35 to 36
task_35: (start=26, end=36, size=10, length=10)
Task 35 is scheduled in mode 2 from 26 to 36
task_36: (start=34, end=36, size=2, length=2)
Task 36 is scheduled in mode 0 from 34 to 36
task_37: (start=24, end=32, size=8, length=8)
Task 37 is scheduled in mode 2 from 24 to 32
task_38: (start=28, end=30, size=2, length=2)
Task 38 is scheduled in mode 1 from 28 to 30
task_39: (start=26, end=28, size=2, length=2)
Task 39 is scheduled in mode 0 from 26 to 28
task_40: (start=26, end=27, size=1, length=1)
Task 40 is scheduled in mode 0 from 26 to 27
task_41: (start=34, end=35, size=1, length=1)
Task 41 is scheduled in mode 0 from 34 to 35
task_42: (start=27, end=36, size=9, length=9)
Task 42 is scheduled in mode 1 from 27 to 36
task_43: (start=24, end=26, size=2, length=2)
Task 43 is scheduled in mode 0 from 24 to 26
task_44: (start=23, end=32, size=9, length=9)
Task 44 is scheduled in mode 2 from 23 to 32
task_45: (start=24, end=26, size=2, length=2)
Task 45 is scheduled in mode 1 from 24 to 26
task_46: (start=30, end=36, size=6, length=6)
Task 46 is scheduled in mode 2 from 30 to 36
task_47: (start=24, end=34, size=10, length=10)
Task 47 is scheduled in mode 2 from 24 to 34
task_48: (start=24, end=34, size=10, length=10)
Task 48 is scheduled in mode 2 from 24 to 34
task_49: (start=27, end=32, size=5, length=5)
Task 49 is scheduled in mode 1 from 27 to 32
task_50: (start=12, end=21, size=9, length=9)
Task 50 is scheduled in mode 2 from 12 to 21
task_51: (start=36, end=36, size=0, length=0)
Task 51 is scheduled in mode 0 from 36 to 36
Feasible solution found
Objective value: 36
Solution is 80.0 % worse than the lower bound.
